node(1).
node(2).
node(3).
node(4).
node(5).
node(6).
node(7).
node(8).
node(9).
node(10).
node(11).
node(12).
node(13).
node(14).
node(15).
node(16).
node(17).
node(18).
node(19).
node(20).
node(21).
node(22).
node(23).
node(24).
node(25).
node(26).
node(27).
node(28).
node(29).
node(30).

colour(red).
colour(green).

link(1,2).
link(2,3).
link(1,3).

link(3,4).
link(4,5).
link(5,6).
link(3,6).

link(6,7).
link(7,8).
link(8,9).
link(6,9).

link(9,10).
link(10,11).
link(11,12).
link(9,12).

link(12,13).
link(13,14).
link(14,15).
link(12,15).

link(15,16).
link(16,17).
link(17,18).
link(15,18).

link(18,19).
link(19,20).
link(20,21).
link(18,21).

link(21,22).
link(22,23).
link(23,24).
link(21,24).

link(24,25).
link(25,26).
link(26,27).
link(24,27).

link(27,28).
link(28,29).
link(29,30).
link(27,30).

link(2,7).
link(5,10).
link(8,13).
link(11,16).
link(14,19).
link(17,22).
link(20,25).
link(23,28).

link(1,15).
link(4,18).
link(7,21).
link(10,24).
link(13,27).
link(16,30).